SCIP version 5.0.0 [precision: 8 byte] [memory: block] [mode: optimized] [LP solver: NONE] [GitHash: 3bbd232]
Copyright (C) 2002-2017 Konrad-Zuse-Zentrum fuer Informationstechnik Berlin (ZIB)

External codes: 
  Readline EditLine w  GNU library for command line editing (gnu.org/s/readline)
  CppAD 20160000.1     Algorithmic Differentiation of C++ algorithms developed by B. Bell (www.coin-or.org/CppAD)
  ZLIB 1.2.5           General purpose compression library by J. Gailly and M. Adler (zlib.net)
  GMP 6.1.2            GNU Multiple Precision Arithmetic Library developed by T. Granlund (gmplib.org)

user parameter file <scip.set> not found - using default parameters

read problem <../../Split_data/output/statG/9/3_sample_statG.logreg>
============

File name	:	../../Split_data/output/statG/9/3_sample_statG.logreg
Problem name 	:	3_sample_statG
Number of data	:	800
Number of var	:	61
The given data has linear dependence
13 sets of column vector are linearly dependent:

[dim=1] time: 0.034858
[dim=2] time: 0.074641
[dim=3] time: 0.113438
[dim=4] time: 0.152543
[dim=5] time: 0.191401
[dim=6] time: 0.23812
[dim=7] time: 0.285987
[dim=8] time: 0.326132
[dim=9] time: 0.37894
[dim=10] time: 0.420493
[dim=11] time: 0.465073
[dim=12] time: 0.505502
[dim=13] time: 0.548129
[dim=14] time: 0.60309
[dim=15] time: 0.64456
[dim=16] time: 0.684604
[dim=17] time: 0.724113
[dim=18] time: 0.762818
[dim=19] time: 0.800633
[dim=20] time: 0.837947
[dim=21] time: 0.873575
[dim=22] time: 0.914339
[dim=23] time: 0.949551
[dim=24] Time of forward = 0.98181sec.
AIC: 787.735
k: 23

[dim=48] time: 0.108194
[dim=47] time: 0.191544
[dim=46] time: 0.262218
[dim=45] time: 0.334437
[dim=44] time: 0.397227
[dim=43] time: 0.46504
[dim=42] time: 0.533757
[dim=41] time: 0.59025
[dim=40] time: 0.634766
[dim=39] time: 0.689877
[dim=38] time: 0.742322
[dim=37] time: 0.784721
[dim=36] time: 0.830876
[dim=35] time: 0.876505
[dim=34] time: 0.922659
[dim=33] time: 0.962357
[dim=32] time: 1.00464
[dim=31] time: 1.04909
[dim=30] time: 1.08547
[dim=29] time: 1.11788
[dim=28] time: 1.15081
[dim=27] time: 1.17978
[dim=26] time: 1.218
[dim=25] Time of backward = 1.25233sec.
AIC: 792.037
k: 26
